0 62 31 19 43 25 46 6 14 44 1 36 2 24 8 39 47 48 11 5 41 40 75 15 35 33 71 55 38 72 73 45 61 29 49 7 27 54 69 20 26 37 18 52 42 65 70 12 30 74 13 53 56 58 63 57 76 66 16 59 50 68 23 3 9 60 4 28 64 67 21 10 32 22 51 17 34 